

******************************************************************************
This program contains Ipopt, a library for large-scale nonlinear optimization.
 Ipopt is released as open source code under the Eclipse Public License (EPL).
         For more information visit http://projects.coin-or.org/Ipopt
******************************************************************************

This is Ipopt version 3.12.8, running with linear solver mumps.
NOTE: Other linear solvers might be more efficient (see Ipopt documentation).

Number of nonzeros in equality constraint Jacobian...:       12
Number of nonzeros in inequality constraint Jacobian.:        0
Number of nonzeros in Lagrangian Hessian.............:       78

Total number of variables............................:       12
                     variables with only lower bounds:        0
                variables with lower and upper bounds:       12
                     variables with only upper bounds:        0
Total number of equality constraints.................:        1
Total number of inequality constraints...............:        0
        inequality constraints with only lower bounds:        0
   inequality constraints with lower and upper bounds:        0
        inequality constraints with only upper bounds:        0

iter    objective    inf_pr   inf_du lg(mu)  ||d||  lg(rg) alpha_du alpha_pr  ls
   0  3.0479616e-02 0.00e+00 2.49e-02  -1.0 0.00e+00    -  0.00e+00 0.00e+00   0
   1  3.0398561e-02 0.00e+00 1.11e-16  -1.7 1.88e-03    -  1.00e+00 1.00e+00f  1
   2  3.0081735e-02 0.00e+00 6.19e-03  -3.8 7.31e-03    -  9.72e-01 1.00e+00f  1
   3  2.7230730e-02 0.00e+00 6.58e-04  -3.8 1.76e-01    -  9.32e-01 1.00e+00f  1
   4  2.6203065e-02 2.22e-16 1.26e-03  -5.7 5.57e-02    -  7.23e-01 1.00e+00f  1
   5  2.5879886e-02 0.00e+00 1.39e-17  -5.7 5.80e-02    -  1.00e+00 1.00e+00f  1
   6  2.5808736e-02 0.00e+00 9.97e-18  -5.7 9.18e-03    -  1.00e+00 1.00e+00f  1
   7  2.5792279e-02 0.00e+00 9.99e-07  -8.6 2.56e-03    -  9.92e-01 1.00e+00f  1
   8  2.5791814e-02 0.00e+00 9.73e-18  -8.6 1.58e-04    -  1.00e+00 1.00e+00f  1

Number of Iterations....: 8

                                   (scaled)                 (unscaled)
Objective...............:   2.5791814065240053e-02    2.5791814065240053e-02
Dual infeasibility......:   9.7250863611695915e-18    9.7250863611695915e-18
Constraint violation....:   0.0000000000000000e+00    0.0000000000000000e+00
Complementarity.........:   3.6288874003926600e-09    3.6288874003926600e-09
Overall NLP error.......:   3.6288874003926600e-09    3.6288874003926600e-09


Number of objective function evaluations             = 9
Number of objective gradient evaluations             = 9
Number of equality constraint evaluations            = 9
Number of inequality constraint evaluations          = 0
Number of equality constraint Jacobian evaluations   = 9
Number of inequality constraint Jacobian evaluations = 0
Number of Lagrangian Hessian evaluations             = 8
Total CPU secs in IPOPT (w/o function evaluations)   =      0.003
Total CPU secs in NLP function evaluations           =      0.000

EXIT: Optimal Solution Found.
 
Ipopt 3.12.8: Optimal Solution Found
